NAME: tsp20-41
TYPE: TSP
DIMENSION: 20
EDGE_WEIGHT_TYPE: EUC_2D
NODE_COORD_SECTION
0 22 18
1 42 45
2 67 23
3 53 90
4 83 48
5 91 92
6 75 41
7 53 67
8 54 10
9 51 71
10 99 7
11 27 42
12 66 48
13 80 80
14 19 27
15 47 85
16 73 54
17 75 100
18 95 68
19 22 53
EOF